(set-info :smt-lib-version 2.6)
(set-logic UF)
(set-info :source |Benchmarks from the paper: "Extending Sledgehammer with SMT Solvers" by Jasmin Blanchette, Sascha Bohme, and Lawrence C. Paulson, CADE 2011.  Translated to SMT2 by Andrew Reynolds and Morgan Deters.|)
(set-info :category "industrial")
(set-info :status unknown)
(declare-sort S1 0)
(declare-sort S2 0)
(declare-sort S3 0)
(declare-sort S4 0)
(declare-sort S5 0)
(declare-sort S6 0)
(declare-sort S7 0)
(declare-sort S8 0)
(declare-sort S9 0)
(declare-sort S10 0)
(declare-sort S11 0)
(declare-sort S12 0)
(declare-sort S13 0)
(declare-sort S14 0)
(declare-sort S15 0)
(declare-sort S16 0)
(declare-sort S17 0)
(declare-sort S18 0)
(declare-sort S19 0)
(declare-sort S20 0)
(declare-sort S21 0)
(declare-sort S22 0)
(declare-sort S23 0)
(declare-sort S24 0)
(declare-sort S25 0)
(declare-sort S26 0)
(declare-sort S27 0)
(declare-sort S28 0)
(declare-sort S29 0)
(declare-sort S30 0)
(declare-sort S31 0)
(declare-sort S32 0)
(declare-sort S33 0)
(declare-sort S34 0)
(declare-sort S35 0)
(declare-sort S36 0)
(declare-sort S37 0)
(declare-sort S38 0)
(declare-sort S39 0)
(declare-sort S40 0)
(declare-sort S41 0)
(declare-sort S42 0)
(declare-sort S43 0)
(declare-sort S44 0)
(declare-sort S45 0)
(declare-sort S46 0)
(declare-sort S47 0)
(declare-sort S48 0)
(declare-sort S49 0)
(declare-sort S50 0)
(declare-sort S51 0)
(declare-sort S52 0)
(declare-sort S53 0)
(declare-sort S54 0)
(declare-sort S55 0)
(declare-sort S56 0)
(declare-sort S57 0)
(declare-sort S58 0)
(declare-sort S59 0)
(declare-sort S60 0)
(declare-sort S61 0)
(declare-sort S62 0)
(declare-sort S63 0)
(declare-sort S64 0)
(declare-sort S65 0)
(declare-sort S66 0)
(declare-sort S67 0)
(declare-sort S68 0)
(declare-sort S69 0)
(declare-sort S70 0)
(declare-sort S71 0)
(declare-sort S72 0)
(declare-sort S73 0)
(declare-sort S74 0)
(declare-sort S75 0)
(declare-sort S76 0)
(declare-sort S77 0)
(declare-sort S78 0)
(declare-sort S79 0)
(declare-sort S80 0)
(declare-sort S81 0)
(declare-sort S82 0)
(declare-sort S83 0)
(declare-sort S84 0)
(declare-sort S85 0)
(declare-sort S86 0)
(declare-sort S87 0)
(declare-sort S88 0)
(declare-sort S89 0)
(declare-sort S90 0)
(declare-sort S91 0)
(declare-sort S92 0)
(declare-sort S93 0)
(declare-sort S94 0)
(declare-sort S95 0)
(declare-sort S96 0)
(declare-sort S97 0)
(declare-sort S98 0)
(declare-sort S99 0)
(declare-sort S100 0)
(declare-sort S101 0)
(declare-sort S102 0)
(declare-sort S103 0)
(declare-sort S104 0)
(declare-sort S105 0)
(declare-sort S106 0)
(declare-sort S107 0)
(declare-sort S108 0)
(declare-sort S109 0)
(declare-sort S110 0)
(declare-sort S111 0)
(declare-fun f1 () S1)
(declare-fun f2 () S1)
(declare-fun f3 (S2 S3) S4)
(declare-fun f4 (S5 S4) S2)
(declare-fun f5 () S5)
(declare-fun f6 () S4)
(declare-fun f7 () S3)
(declare-fun f8 () S4)
(declare-fun f9 (S7 S6) S8)
(declare-fun f10 (S9 S8) S7)
(declare-fun f11 () S9)
(declare-fun f12 () S8)
(declare-fun f13 (S11 S10) S12)
(declare-fun f14 (S13 S12) S11)
(declare-fun f15 () S13)
(declare-fun f16 () S12)
(declare-fun f17 (S15 S14) S16)
(declare-fun f18 (S17 S16) S15)
(declare-fun f19 () S17)
(declare-fun f20 () S16)
(declare-fun f21 (S18 S4) S14)
(declare-fun f22 (S19 S14) S18)
(declare-fun f23 () S19)
(declare-fun f24 () S14)
(declare-fun f25 (S21 S20) S10)
(declare-fun f26 (S22 S10) S21)
(declare-fun f27 () S22)
(declare-fun f28 () S10)
(declare-fun f29 (S24 S23) S6)
(declare-fun f30 (S25 S6) S24)
(declare-fun f31 () S25)
(declare-fun f32 () S6)
(declare-fun f33 () S20)
(declare-fun f34 () S23)
(declare-fun f35 () S3)
(declare-fun f36 (S26 S4) S4)
(declare-fun f37 (S27 S3) S26)
(declare-fun f38 () S27)
(declare-fun f39 (S28 S8) S8)
(declare-fun f40 (S29 S6) S28)
(declare-fun f41 () S29)
(declare-fun f42 (S30 S12) S12)
(declare-fun f43 (S31 S10) S30)
(declare-fun f44 () S31)
(declare-fun f45 (S32 S16) S16)
(declare-fun f46 (S33 S14) S32)
(declare-fun f47 () S33)
(declare-fun f48 (S34 S14) S14)
(declare-fun f49 (S35 S4) S34)
(declare-fun f50 () S35)
(declare-fun f51 (S36 S6) S6)
(declare-fun f52 (S37 S23) S36)
(declare-fun f53 () S37)
(declare-fun f54 (S38 S10) S10)
(declare-fun f55 (S39 S20) S38)
(declare-fun f56 () S39)
(declare-fun f57 (S40 S20) S4)
(declare-fun f58 (S41 S3) S40)
(declare-fun f59 () S41)
(declare-fun f60 (S42 S20) S21)
(declare-fun f61 () S42)
(declare-fun f62 (S43 S20) S6)
(declare-fun f63 (S44 S23) S43)
(declare-fun f64 () S44)
(declare-fun f65 (S45 S20) S14)
(declare-fun f66 (S46 S4) S45)
(declare-fun f67 () S46)
(declare-fun f68 (S47 S20) S48)
(declare-fun f69 (S49 S8) S47)
(declare-fun f70 () S49)
(declare-fun f71 () S48)
(declare-fun f72 (S50 S20) S51)
(declare-fun f73 (S52 S12) S50)
(declare-fun f74 () S52)
(declare-fun f75 () S51)
(declare-fun f76 (S53 S20) S54)
(declare-fun f77 (S55 S16) S53)
(declare-fun f78 () S55)
(declare-fun f79 () S54)
(declare-fun f80 (S56 S20) S16)
(declare-fun f81 (S57 S14) S56)
(declare-fun f82 () S57)
(declare-fun f83 (S58 S20) S12)
(declare-fun f84 (S59 S10) S58)
(declare-fun f85 () S59)
(declare-fun f86 (S60 S20) S8)
(declare-fun f87 (S61 S6) S60)
(declare-fun f88 () S61)
(declare-fun f89 (S62 S20) S20)
(declare-fun f90 (S63 S10) S62)
(declare-fun f91 () S63)
(declare-fun f92 (S64 S23) S23)
(declare-fun f93 (S65 S6) S64)
(declare-fun f94 () S65)
(declare-fun f95 (S66 S14) S26)
(declare-fun f96 () S66)
(declare-fun f97 (S67 S3) S3)
(declare-fun f98 (S68 S4) S67)
(declare-fun f99 () S68)
(declare-fun f100 (S69 S48) S28)
(declare-fun f101 () S69)
(declare-fun f102 (S70 S51) S30)
(declare-fun f103 () S70)
(declare-fun f104 (S71 S54) S32)
(declare-fun f105 () S71)
(declare-fun f106 (S72 S16) S34)
(declare-fun f107 () S72)
(declare-fun f108 (S73 S12) S38)
(declare-fun f109 () S73)
(declare-fun f110 (S74 S8) S36)
(declare-fun f111 () S74)
(declare-fun f112 () S63)
(declare-fun f113 (S75 S20) S23)
(declare-fun f114 (S76 S6) S75)
(declare-fun f115 () S76)
(declare-fun f116 (S77 S14) S40)
(declare-fun f117 () S77)
(declare-fun f118 (S78 S20) S3)
(declare-fun f119 (S79 S4) S78)
(declare-fun f120 () S79)
(declare-fun f121 (S80 S48) S60)
(declare-fun f122 () S80)
(declare-fun f123 (S81 S51) S58)
(declare-fun f124 () S81)
(declare-fun f125 (S82 S54) S56)
(declare-fun f126 () S82)
(declare-fun f127 (S83 S16) S45)
(declare-fun f128 () S83)
(declare-fun f129 (S84 S12) S21)
(declare-fun f130 () S84)
(declare-fun f131 (S85 S8) S43)
(declare-fun f132 () S85)
(declare-fun f133 () S27)
(declare-fun f134 () S39)
(declare-fun f135 () S37)
(declare-fun f136 () S35)
(declare-fun f137 (S86 S48) S48)
(declare-fun f138 (S87 S8) S86)
(declare-fun f139 () S87)
(declare-fun f140 (S88 S51) S51)
(declare-fun f141 (S89 S12) S88)
(declare-fun f142 () S89)
(declare-fun f143 (S90 S54) S54)
(declare-fun f144 (S91 S16) S90)
(declare-fun f145 () S91)
(declare-fun f146 () S33)
(declare-fun f147 () S31)
(declare-fun f148 () S29)
(declare-fun f149 () S87)
(declare-fun f150 () S89)
(declare-fun f151 () S91)
(declare-fun f152 (S92 S4) S26)
(declare-fun f153 () S92)
(declare-fun f154 (S93 S8) S28)
(declare-fun f155 () S93)
(declare-fun f156 (S94 S12) S30)
(declare-fun f157 () S94)
(declare-fun f158 (S95 S16) S32)
(declare-fun f159 () S95)
(declare-fun f160 (S96 S14) S34)
(declare-fun f161 () S96)
(declare-fun f162 (S97 S10) S38)
(declare-fun f163 () S97)
(declare-fun f164 (S98 S6) S36)
(declare-fun f165 () S98)
(declare-fun f166 (S99 S4) S1)
(declare-fun f167 (S100 S8) S1)
(declare-fun f168 (S101 S12) S1)
(declare-fun f169 (S102 S16) S1)
(declare-fun f170 (S103 S14) S1)
(declare-fun f171 (S104 S6) S1)
(declare-fun f172 (S105 S10) S1)
(declare-fun f173 (S106 S6) S20)
(declare-fun f174 (S107 S23) S106)
(declare-fun f175 () S107)
(declare-fun f176 (S108 S48) S20)
(declare-fun f177 (S109 S8) S108)
(declare-fun f178 () S109)
(declare-fun f179 (S110 S8) S20)
(declare-fun f180 (S111 S6) S110)
(declare-fun f181 () S111)
(declare-fun f182 () S9)
(declare-fun f183 () S13)
(declare-fun f184 () S17)
(declare-fun f185 () S5)
(declare-fun f186 () S19)
(declare-fun f187 () S22)
(declare-fun f188 () S25)
(assert (not (= f1 f2)))
(assert (not (= (= (f3 (f4 f5 f6) f7) f8) (= f6 f8))))
(assert (forall ((?v0 S3)) (= (f3 (f4 f5 f8) ?v0) f8)))
(assert (forall ((?v0 S6)) (= (f9 (f10 f11 f12) ?v0) f12)))
(assert (forall ((?v0 S10)) (= (f13 (f14 f15 f16) ?v0) f16)))
(assert (forall ((?v0 S14)) (= (f17 (f18 f19 f20) ?v0) f20)))
(assert (forall ((?v0 S4)) (= (f21 (f22 f23 f24) ?v0) f24)))
(assert (forall ((?v0 S20)) (= (f25 (f26 f27 f28) ?v0) f28)))
(assert (forall ((?v0 S23)) (= (f29 (f30 f31 f32) ?v0) f32)))
(assert (forall ((?v0 S20)) (= (= f33 ?v0) (= ?v0 f33))))
(assert (forall ((?v0 S23)) (= (= f34 ?v0) (= ?v0 f34))))
(assert (forall ((?v0 S4)) (= (= f8 ?v0) (= ?v0 f8))))
(assert (forall ((?v0 S8)) (= (= f12 ?v0) (= ?v0 f12))))
(assert (forall ((?v0 S12)) (= (= f16 ?v0) (= ?v0 f16))))
(assert (forall ((?v0 S16)) (= (= f20 ?v0) (= ?v0 f20))))
(assert (forall ((?v0 S14)) (= (= f24 ?v0) (= ?v0 f24))))
(assert (forall ((?v0 S10)) (= (= f28 ?v0) (= ?v0 f28))))
(assert (forall ((?v0 S3)) (= (= f35 ?v0) (= ?v0 f35))))
(assert (forall ((?v0 S6)) (= (= f32 ?v0) (= ?v0 f32))))
(assert (forall ((?v0 S3) (?v1 S3)) (let ((?v_0 (f36 (f37 f38 ?v0) f8))) (= (f3 (f4 f5 ?v_0) ?v1) ?v_0))))
(assert (forall ((?v0 S6) (?v1 S6)) (let ((?v_0 (f39 (f40 f41 ?v0) f12))) (= (f9 (f10 f11 ?v_0) ?v1) ?v_0))))
(assert (forall ((?v0 S10) (?v1 S10)) (let ((?v_0 (f42 (f43 f44 ?v0) f16))) (= (f13 (f14 f15 ?v_0) ?v1) ?v_0))))
(assert (forall ((?v0 S14) (?v1 S14)) (let ((?v_0 (f45 (f46 f47 ?v0) f20))) (= (f17 (f18 f19 ?v_0) ?v1) ?v_0))))
(assert (forall ((?v0 S4) (?v1 S4)) (let ((?v_0 (f48 (f49 f50 ?v0) f24))) (= (f21 (f22 f23 ?v_0) ?v1) ?v_0))))
(assert (forall ((?v0 S23) (?v1 S23)) (let ((?v_0 (f51 (f52 f53 ?v0) f32))) (= (f29 (f30 f31 ?v_0) ?v1) ?v_0))))
(assert (forall ((?v0 S20) (?v1 S20)) (let ((?v_0 (f54 (f55 f56 ?v0) f28))) (= (f25 (f26 f27 ?v_0) ?v1) ?v_0))))
(assert (forall ((?v0 S20)) (= (f57 (f58 f59 f35) ?v0) f8)))
(assert (forall ((?v0 S20)) (= (f25 (f60 f61 f33) ?v0) f28)))
(assert (forall ((?v0 S20)) (= (f62 (f63 f64 f34) ?v0) f32)))
(assert (forall ((?v0 S20)) (= (f65 (f66 f67 f8) ?v0) f24)))
(assert (forall ((?v0 S20)) (= (f68 (f69 f70 f12) ?v0) f71)))
(assert (forall ((?v0 S20)) (= (f72 (f73 f74 f16) ?v0) f75)))
(assert (forall ((?v0 S20)) (= (f76 (f77 f78 f20) ?v0) f79)))
(assert (forall ((?v0 S20)) (= (f80 (f81 f82 f24) ?v0) f20)))
(assert (forall ((?v0 S20)) (= (f83 (f84 f85 f28) ?v0) f16)))
(assert (forall ((?v0 S20)) (= (f86 (f87 f88 f32) ?v0) f12)))
(assert (forall ((?v0 S20) (?v1 S20)) (= (= (f25 (f60 f61 ?v0) ?v1) f28) (= ?v0 f33))))
(assert (forall ((?v0 S23) (?v1 S20)) (= (= (f62 (f63 f64 ?v0) ?v1) f32) (= ?v0 f34))))
(assert (forall ((?v0 S4) (?v1 S20)) (= (= (f65 (f66 f67 ?v0) ?v1) f24) (= ?v0 f8))))
(assert (forall ((?v0 S3) (?v1 S20)) (= (= (f57 (f58 f59 ?v0) ?v1) f8) (= ?v0 f35))))
(assert (forall ((?v0 S8) (?v1 S20)) (= (= (f68 (f69 f70 ?v0) ?v1) f71) (= ?v0 f12))))
(assert (forall ((?v0 S12) (?v1 S20)) (= (= (f72 (f73 f74 ?v0) ?v1) f75) (= ?v0 f16))))
(assert (forall ((?v0 S16) (?v1 S20)) (= (= (f76 (f77 f78 ?v0) ?v1) f79) (= ?v0 f20))))
(assert (forall ((?v0 S14) (?v1 S20)) (= (= (f80 (f81 f82 ?v0) ?v1) f20) (= ?v0 f24))))
(assert (forall ((?v0 S10) (?v1 S20)) (= (= (f83 (f84 f85 ?v0) ?v1) f16) (= ?v0 f28))))
(assert (forall ((?v0 S6) (?v1 S20)) (= (= (f86 (f87 f88 ?v0) ?v1) f12) (= ?v0 f32))))
(assert (forall ((?v0 S20)) (= (f89 (f90 f91 f28) ?v0) f33)))
(assert (forall ((?v0 S23)) (= (f92 (f93 f94 f32) ?v0) f34)))
(assert (forall ((?v0 S4)) (= (f36 (f95 f96 f24) ?v0) f8)))
(assert (forall ((?v0 S3)) (= (f97 (f98 f99 f8) ?v0) f35)))
(assert (forall ((?v0 S8)) (= (f39 (f100 f101 f71) ?v0) f12)))
(assert (forall ((?v0 S12)) (= (f42 (f102 f103 f75) ?v0) f16)))
(assert (forall ((?v0 S16)) (= (f45 (f104 f105 f79) ?v0) f20)))
(assert (forall ((?v0 S14)) (= (f48 (f106 f107 f20) ?v0) f24)))
(assert (forall ((?v0 S10)) (= (f54 (f108 f109 f16) ?v0) f28)))
(assert (forall ((?v0 S6)) (= (f51 (f110 f111 f12) ?v0) f32)))
(assert (forall ((?v0 S20)) (= (f89 (f90 f112 f28) ?v0) f33)))
(assert (forall ((?v0 S20)) (= (f113 (f114 f115 f32) ?v0) f34)))
(assert (forall ((?v0 S20)) (= (f57 (f116 f117 f24) ?v0) f8)))
(assert (forall ((?v0 S20)) (= (f118 (f119 f120 f8) ?v0) f35)))
(assert (forall ((?v0 S20)) (= (f86 (f121 f122 f71) ?v0) f12)))
(assert (forall ((?v0 S20)) (= (f83 (f123 f124 f75) ?v0) f16)))
(assert (forall ((?v0 S20)) (= (f80 (f125 f126 f79) ?v0) f20)))
(assert (forall ((?v0 S20)) (= (f65 (f127 f128 f20) ?v0) f24)))
(assert (forall ((?v0 S20)) (= (f25 (f129 f130 f16) ?v0) f28)))
(assert (forall ((?v0 S20)) (= (f62 (f131 f132 f12) ?v0) f32)))
(assert (forall ((?v0 S4)) (= (f36 (f37 f133 f35) ?v0) f8)))
(assert (forall ((?v0 S10)) (= (f54 (f55 f134 f33) ?v0) f28)))
(assert (forall ((?v0 S6)) (= (f51 (f52 f135 f34) ?v0) f32)))
(assert (forall ((?v0 S14)) (= (f48 (f49 f136 f8) ?v0) f24)))
(assert (forall ((?v0 S48)) (= (f137 (f138 f139 f12) ?v0) f71)))
(assert (forall ((?v0 S51)) (= (f140 (f141 f142 f16) ?v0) f75)))
(assert (forall ((?v0 S54)) (= (f143 (f144 f145 f20) ?v0) f79)))
(assert (forall ((?v0 S16)) (= (f45 (f46 f146 f24) ?v0) f20)))
(assert (forall ((?v0 S12)) (= (f42 (f43 f147 f28) ?v0) f16)))
(assert (forall ((?v0 S8)) (= (f39 (f40 f148 f32) ?v0) f12)))
(assert (forall ((?v0 S23) (?v1 S6)) (= (= (f51 (f52 f135 ?v0) ?v1) f32) (or (= ?v0 f34) (= ?v1 f32)))))
(assert (forall ((?v0 S8) (?v1 S48)) (= (= (f137 (f138 f139 ?v0) ?v1) f71) (or (= ?v0 f12) (= ?v1 f71)))))
(assert (forall ((?v0 S6) (?v1 S8)) (= (= (f39 (f40 f148 ?v0) ?v1) f12) (or (= ?v0 f32) (= ?v1 f12)))))
(assert (= (f36 (f37 f38 f35) f8) f8))
(assert (= (f54 (f55 f56 f33) f28) f28))
(assert (= (f51 (f52 f53 f34) f32) f32))
(assert (= (f48 (f49 f50 f8) f24) f24))
(assert (= (f137 (f138 f149 f12) f71) f71))
(assert (= (f140 (f141 f150 f16) f75) f75))
(assert (= (f143 (f144 f151 f20) f79) f79))
(assert (= (f45 (f46 f47 f24) f20) f20))
(assert (= (f42 (f43 f44 f28) f16) f16))
(assert (= (f39 (f40 f41 f32) f12) f12))
(assert (forall ((?v0 S20) (?v1 S10)) (= (= (f54 (f55 f56 ?v0) ?v1) f28) (and (= ?v0 f33) (= ?v1 f28)))))
(assert (forall ((?v0 S23) (?v1 S6)) (= (= (f51 (f52 f53 ?v0) ?v1) f32) (and (= ?v0 f34) (= ?v1 f32)))))
(assert (forall ((?v0 S4) (?v1 S14)) (= (= (f48 (f49 f50 ?v0) ?v1) f24) (and (= ?v0 f8) (= ?v1 f24)))))
(assert (forall ((?v0 S3) (?v1 S4)) (= (= (f36 (f37 f38 ?v0) ?v1) f8) (and (= ?v0 f35) (= ?v1 f8)))))
(assert (forall ((?v0 S8) (?v1 S48)) (= (= (f137 (f138 f149 ?v0) ?v1) f71) (and (= ?v0 f12) (= ?v1 f71)))))
(assert (forall ((?v0 S12) (?v1 S51)) (= (= (f140 (f141 f150 ?v0) ?v1) f75) (and (= ?v0 f16) (= ?v1 f75)))))
(assert (forall ((?v0 S16) (?v1 S54)) (= (= (f143 (f144 f151 ?v0) ?v1) f79) (and (= ?v0 f20) (= ?v1 f79)))))
(assert (forall ((?v0 S14) (?v1 S16)) (= (= (f45 (f46 f47 ?v0) ?v1) f20) (and (= ?v0 f24) (= ?v1 f20)))))
(assert (forall ((?v0 S10) (?v1 S12)) (= (= (f42 (f43 f44 ?v0) ?v1) f16) (and (= ?v0 f28) (= ?v1 f16)))))
(assert (forall ((?v0 S6) (?v1 S8)) (= (= (f39 (f40 f41 ?v0) ?v1) f12) (and (= ?v0 f32) (= ?v1 f12)))))
(assert (forall ((?v0 S4)) (= (f36 (f152 f153 f8) ?v0) f8)))
(assert (forall ((?v0 S8)) (= (f39 (f154 f155 f12) ?v0) f12)))
(assert (forall ((?v0 S12)) (= (f42 (f156 f157 f16) ?v0) f16)))
(assert (forall ((?v0 S16)) (= (f45 (f158 f159 f20) ?v0) f20)))
(assert (forall ((?v0 S14)) (= (f48 (f160 f161 f24) ?v0) f24)))
(assert (forall ((?v0 S10)) (= (f54 (f162 f163 f28) ?v0) f28)))
(assert (forall ((?v0 S6)) (= (f51 (f164 f165 f32) ?v0) f32)))
(assert (forall ((?v0 S3)) (= (f57 (f58 f59 ?v0) f33) (f36 (f37 f38 ?v0) f8))))
(assert (forall ((?v0 S6)) (= (f86 (f87 f88 ?v0) f33) (f39 (f40 f41 ?v0) f12))))
(assert (forall ((?v0 S10)) (= (f83 (f84 f85 ?v0) f33) (f42 (f43 f44 ?v0) f16))))
(assert (forall ((?v0 S14)) (= (f80 (f81 f82 ?v0) f33) (f45 (f46 f47 ?v0) f20))))
(assert (forall ((?v0 S4)) (= (f65 (f66 f67 ?v0) f33) (f48 (f49 f50 ?v0) f24))))
(assert (forall ((?v0 S23)) (= (f62 (f63 f64 ?v0) f33) (f51 (f52 f53 ?v0) f32))))
(assert (forall ((?v0 S20)) (= (f25 (f60 f61 ?v0) f33) (f54 (f55 f56 ?v0) f28))))
(assert (forall ((?v0 S8) (?v1 S8)) (= (= ?v0 ?v1) (forall ((?v2 S20)) (= (f62 (f131 f132 ?v0) ?v2) (f62 (f131 f132 ?v1) ?v2))))))
(assert (forall ((?v0 S12) (?v1 S12)) (= (= ?v0 ?v1) (forall ((?v2 S20)) (= (f25 (f129 f130 ?v0) ?v2) (f25 (f129 f130 ?v1) ?v2))))))
(assert (forall ((?v0 S16) (?v1 S16)) (= (= ?v0 ?v1) (forall ((?v2 S20)) (= (f65 (f127 f128 ?v0) ?v2) (f65 (f127 f128 ?v1) ?v2))))))
(assert (forall ((?v0 S4) (?v1 S4)) (= (= ?v0 ?v1) (forall ((?v2 S20)) (= (f118 (f119 f120 ?v0) ?v2) (f118 (f119 f120 ?v1) ?v2))))))
(assert (forall ((?v0 S14) (?v1 S14)) (= (= ?v0 ?v1) (forall ((?v2 S20)) (= (f57 (f116 f117 ?v0) ?v2) (f57 (f116 f117 ?v1) ?v2))))))
(assert (forall ((?v0 S6) (?v1 S6)) (= (= ?v0 ?v1) (forall ((?v2 S20)) (= (f113 (f114 f115 ?v0) ?v2) (f113 (f114 f115 ?v1) ?v2))))))
(assert (forall ((?v0 S10) (?v1 S10)) (= (= ?v0 ?v1) (forall ((?v2 S20)) (= (f89 (f90 f112 ?v0) ?v2) (f89 (f90 f112 ?v1) ?v2))))))
(assert (forall ((?v0 S8) (?v1 S8)) (= (= (f110 f111 ?v0) (f110 f111 ?v1)) (= ?v0 ?v1))))
(assert (forall ((?v0 S6) (?v1 S6)) (= (= (f93 f94 ?v0) (f93 f94 ?v1)) (= ?v0 ?v1))))
(assert (forall ((?v0 S8) (?v1 S8)) (= (= (f131 f132 ?v0) (f131 f132 ?v1)) (= ?v0 ?v1))))
(assert (forall ((?v0 S12) (?v1 S12)) (= (= (f129 f130 ?v0) (f129 f130 ?v1)) (= ?v0 ?v1))))
(assert (forall ((?v0 S16) (?v1 S16)) (= (= (f127 f128 ?v0) (f127 f128 ?v1)) (= ?v0 ?v1))))
(assert (forall ((?v0 S4) (?v1 S4)) (= (= (f119 f120 ?v0) (f119 f120 ?v1)) (= ?v0 ?v1))))
(assert (forall ((?v0 S14) (?v1 S14)) (= (= (f116 f117 ?v0) (f116 f117 ?v1)) (= ?v0 ?v1))))
(assert (forall ((?v0 S6) (?v1 S6)) (= (= (f114 f115 ?v0) (f114 f115 ?v1)) (= ?v0 ?v1))))
(assert (forall ((?v0 S10) (?v1 S10)) (= (= (f90 f112 ?v0) (f90 f112 ?v1)) (= ?v0 ?v1))))
(assert (forall ((?v0 S6) (?v1 S8)) (= (f62 (f131 f132 (f39 (f40 f41 ?v0) ?v1)) f33) ?v0)))
(assert (forall ((?v0 S10) (?v1 S12)) (= (f25 (f129 f130 (f42 (f43 f44 ?v0) ?v1)) f33) ?v0)))
(assert (forall ((?v0 S14) (?v1 S16)) (= (f65 (f127 f128 (f45 (f46 f47 ?v0) ?v1)) f33) ?v0)))
(assert (forall ((?v0 S3) (?v1 S4)) (= (f118 (f119 f120 (f36 (f37 f38 ?v0) ?v1)) f33) ?v0)))
(assert (forall ((?v0 S4) (?v1 S14)) (= (f57 (f116 f117 (f48 (f49 f50 ?v0) ?v1)) f33) ?v0)))
(assert (forall ((?v0 S23) (?v1 S6)) (= (f113 (f114 f115 (f51 (f52 f53 ?v0) ?v1)) f33) ?v0)))
(assert (forall ((?v0 S20) (?v1 S10)) (= (f89 (f90 f112 (f54 (f55 f56 ?v0) ?v1)) f33) ?v0)))
(assert (forall ((?v0 S8) (?v1 S8) (?v2 S6)) (= (f51 (f110 f111 (f39 (f154 f155 ?v0) ?v1)) ?v2) (f51 (f110 f111 ?v0) (f51 (f110 f111 ?v1) ?v2)))))
(assert (forall ((?v0 S12) (?v1 S12) (?v2 S10)) (= (f54 (f108 f109 (f42 (f156 f157 ?v0) ?v1)) ?v2) (f54 (f108 f109 ?v0) (f54 (f108 f109 ?v1) ?v2)))))
(assert (forall ((?v0 S16) (?v1 S16) (?v2 S14)) (= (f48 (f106 f107 (f45 (f158 f159 ?v0) ?v1)) ?v2) (f48 (f106 f107 ?v0) (f48 (f106 f107 ?v1) ?v2)))))
(assert (forall ((?v0 S4) (?v1 S4) (?v2 S3)) (= (f97 (f98 f99 (f36 (f152 f153 ?v0) ?v1)) ?v2) (f97 (f98 f99 ?v0) (f97 (f98 f99 ?v1) ?v2)))))
(assert (forall ((?v0 S14) (?v1 S14) (?v2 S4)) (= (f36 (f95 f96 (f48 (f160 f161 ?v0) ?v1)) ?v2) (f36 (f95 f96 ?v0) (f36 (f95 f96 ?v1) ?v2)))))
(assert (forall ((?v0 S10) (?v1 S10) (?v2 S20)) (= (f89 (f90 f91 (f54 (f162 f163 ?v0) ?v1)) ?v2) (f89 (f90 f91 ?v0) (f89 (f90 f91 ?v1) ?v2)))))
(assert (forall ((?v0 S6) (?v1 S6) (?v2 S23)) (= (f92 (f93 f94 (f51 (f164 f165 ?v0) ?v1)) ?v2) (f92 (f93 f94 ?v0) (f92 (f93 f94 ?v1) ?v2)))))
(assert (forall ((?v0 S20) (?v1 S20) (?v2 S20)) (= (f89 (f90 f112 (f25 (f60 f61 ?v0) ?v1)) ?v2) (ite (= ?v1 ?v2) ?v0 f33))))
(assert (forall ((?v0 S23) (?v1 S20) (?v2 S20)) (= (f113 (f114 f115 (f62 (f63 f64 ?v0) ?v1)) ?v2) (ite (= ?v1 ?v2) ?v0 f34))))
(assert (forall ((?v0 S4) (?v1 S20) (?v2 S20)) (= (f57 (f116 f117 (f65 (f66 f67 ?v0) ?v1)) ?v2) (ite (= ?v1 ?v2) ?v0 f8))))
(assert (forall ((?v0 S8) (?v1 S20) (?v2 S20)) (= (f86 (f121 f122 (f68 (f69 f70 ?v0) ?v1)) ?v2) (ite (= ?v1 ?v2) ?v0 f12))))
(assert (forall ((?v0 S12) (?v1 S20) (?v2 S20)) (= (f83 (f123 f124 (f72 (f73 f74 ?v0) ?v1)) ?v2) (ite (= ?v1 ?v2) ?v0 f16))))
(assert (forall ((?v0 S16) (?v1 S20) (?v2 S20)) (= (f80 (f125 f126 (f76 (f77 f78 ?v0) ?v1)) ?v2) (ite (= ?v1 ?v2) ?v0 f20))))
(assert (forall ((?v0 S14) (?v1 S20) (?v2 S20)) (= (f65 (f127 f128 (f80 (f81 f82 ?v0) ?v1)) ?v2) (ite (= ?v1 ?v2) ?v0 f24))))
(assert (forall ((?v0 S10) (?v1 S20) (?v2 S20)) (= (f25 (f129 f130 (f83 (f84 f85 ?v0) ?v1)) ?v2) (ite (= ?v1 ?v2) ?v0 f28))))
(assert (forall ((?v0 S6) (?v1 S20) (?v2 S20)) (= (f62 (f131 f132 (f86 (f87 f88 ?v0) ?v1)) ?v2) (ite (= ?v1 ?v2) ?v0 f32))))
(assert (forall ((?v0 S3) (?v1 S20) (?v2 S20)) (= (f118 (f119 f120 (f57 (f58 f59 ?v0) ?v1)) ?v2) (ite (= ?v1 ?v2) ?v0 f35))))
(assert (forall ((?v0 S6) (?v1 S20) (?v2 S6)) (= (= (f86 (f87 f88 ?v0) ?v1) (f86 (f87 f88 ?v2) ?v1)) (= ?v0 ?v2))))
(assert (forall ((?v0 S10) (?v1 S20) (?v2 S10)) (= (= (f83 (f84 f85 ?v0) ?v1) (f83 (f84 f85 ?v2) ?v1)) (= ?v0 ?v2))))
(assert (forall ((?v0 S14) (?v1 S20) (?v2 S14)) (= (= (f80 (f81 f82 ?v0) ?v1) (f80 (f81 f82 ?v2) ?v1)) (= ?v0 ?v2))))
(assert (forall ((?v0 S3) (?v1 S20) (?v2 S3)) (= (= (f57 (f58 f59 ?v0) ?v1) (f57 (f58 f59 ?v2) ?v1)) (= ?v0 ?v2))))
(assert (forall ((?v0 S4) (?v1 S20) (?v2 S4)) (= (= (f65 (f66 f67 ?v0) ?v1) (f65 (f66 f67 ?v2) ?v1)) (= ?v0 ?v2))))
(assert (forall ((?v0 S23) (?v1 S20) (?v2 S23)) (= (= (f62 (f63 f64 ?v0) ?v1) (f62 (f63 f64 ?v2) ?v1)) (= ?v0 ?v2))))
(assert (forall ((?v0 S20) (?v1 S20) (?v2 S20)) (= (= (f25 (f60 f61 ?v0) ?v1) (f25 (f60 f61 ?v2) ?v1)) (= ?v0 ?v2))))
(assert (forall ((?v0 S6) (?v1 S8) (?v2 S6) (?v3 S8)) (= (= (f39 (f40 f41 ?v0) ?v1) (f39 (f40 f41 ?v2) ?v3)) (and (= ?v0 ?v2) (= ?v1 ?v3)))))
(assert (forall ((?v0 S10) (?v1 S12) (?v2 S10) (?v3 S12)) (= (= (f42 (f43 f44 ?v0) ?v1) (f42 (f43 f44 ?v2) ?v3)) (and (= ?v0 ?v2) (= ?v1 ?v3)))))
(assert (forall ((?v0 S14) (?v1 S16) (?v2 S14) (?v3 S16)) (= (= (f45 (f46 f47 ?v0) ?v1) (f45 (f46 f47 ?v2) ?v3)) (and (= ?v0 ?v2) (= ?v1 ?v3)))))
(assert (forall ((?v0 S4) (?v1 S14) (?v2 S4) (?v3 S14)) (= (= (f48 (f49 f50 ?v0) ?v1) (f48 (f49 f50 ?v2) ?v3)) (and (= ?v0 ?v2) (= ?v1 ?v3)))))
(assert (forall ((?v0 S23) (?v1 S6) (?v2 S23) (?v3 S6)) (= (= (f51 (f52 f53 ?v0) ?v1) (f51 (f52 f53 ?v2) ?v3)) (and (= ?v0 ?v2) (= ?v1 ?v3)))))
(assert (forall ((?v0 S20) (?v1 S10) (?v2 S20) (?v3 S10)) (= (= (f54 (f55 f56 ?v0) ?v1) (f54 (f55 f56 ?v2) ?v3)) (and (= ?v0 ?v2) (= ?v1 ?v3)))))
(assert (forall ((?v0 S3) (?v1 S4) (?v2 S3) (?v3 S4)) (= (= (f36 (f37 f38 ?v0) ?v1) (f36 (f37 f38 ?v2) ?v3)) (and (= ?v0 ?v2) (= ?v1 ?v3)))))
(assert (forall ((?v0 S3) (?v1 S4) (?v2 S3)) (=> (= (f36 (f37 f133 ?v0) ?v1) (f36 (f37 f38 ?v2) ?v1)) (= ?v1 f8))))
(assert (forall ((?v0 S6) (?v1 S8) (?v2 S6)) (=> (= (f39 (f40 f148 ?v0) ?v1) (f39 (f40 f41 ?v2) ?v1)) (= ?v1 f12))))
(assert (forall ((?v0 S10) (?v1 S12) (?v2 S10)) (=> (= (f42 (f43 f147 ?v0) ?v1) (f42 (f43 f44 ?v2) ?v1)) (= ?v1 f16))))
(assert (forall ((?v0 S14) (?v1 S16) (?v2 S14)) (=> (= (f45 (f46 f146 ?v0) ?v1) (f45 (f46 f47 ?v2) ?v1)) (= ?v1 f20))))
(assert (forall ((?v0 S4) (?v1 S14) (?v2 S4)) (=> (= (f48 (f49 f136 ?v0) ?v1) (f48 (f49 f50 ?v2) ?v1)) (= ?v1 f24))))
(assert (forall ((?v0 S23) (?v1 S6) (?v2 S23)) (=> (= (f51 (f52 f135 ?v0) ?v1) (f51 (f52 f53 ?v2) ?v1)) (= ?v1 f32))))
(assert (forall ((?v0 S20) (?v1 S10) (?v2 S20)) (=> (= (f54 (f55 f134 ?v0) ?v1) (f54 (f55 f56 ?v2) ?v1)) (= ?v1 f28))))
(assert (forall ((?v0 S3)) (= (f36 (f37 f133 ?v0) f8) f8)))
(assert (forall ((?v0 S6)) (= (f39 (f40 f148 ?v0) f12) f12)))
(assert (forall ((?v0 S10)) (= (f42 (f43 f147 ?v0) f16) f16)))
(assert (forall ((?v0 S14)) (= (f45 (f46 f146 ?v0) f20) f20)))
(assert (forall ((?v0 S4)) (= (f48 (f49 f136 ?v0) f24) f24)))
(assert (forall ((?v0 S20)) (= (f54 (f55 f134 ?v0) f28) f28)))
(assert (forall ((?v0 S23)) (= (f51 (f52 f135 ?v0) f32) f32)))
(assert (forall ((?v0 S8)) (= (= (f110 f111 ?v0) (f110 f111 f12)) (= ?v0 f12))))
(assert (forall ((?v0 S6)) (= (= (f93 f94 ?v0) (f93 f94 f32)) (= ?v0 f32))))
(assert (forall ((?v0 S99) (?v1 S4)) (=> (= (f166 ?v0 f8) f1) (=> (forall ((?v2 S3) (?v3 S4)) (=> (= (f166 ?v0 ?v3) f1) (= (f166 ?v0 (f36 (f37 f38 ?v2) ?v3)) f1))) (= (f166 ?v0 ?v1) f1)))))
(assert (forall ((?v0 S100) (?v1 S8)) (=> (= (f167 ?v0 f12) f1) (=> (forall ((?v2 S6) (?v3 S8)) (=> (= (f167 ?v0 ?v3) f1) (= (f167 ?v0 (f39 (f40 f41 ?v2) ?v3)) f1))) (= (f167 ?v0 ?v1) f1)))))
(assert (forall ((?v0 S101) (?v1 S12)) (=> (= (f168 ?v0 f16) f1) (=> (forall ((?v2 S10) (?v3 S12)) (=> (= (f168 ?v0 ?v3) f1) (= (f168 ?v0 (f42 (f43 f44 ?v2) ?v3)) f1))) (= (f168 ?v0 ?v1) f1)))))
(assert (forall ((?v0 S102) (?v1 S16)) (=> (= (f169 ?v0 f20) f1) (=> (forall ((?v2 S14) (?v3 S16)) (=> (= (f169 ?v0 ?v3) f1) (= (f169 ?v0 (f45 (f46 f47 ?v2) ?v3)) f1))) (= (f169 ?v0 ?v1) f1)))))
(assert (forall ((?v0 S103) (?v1 S14)) (=> (= (f170 ?v0 f24) f1) (=> (forall ((?v2 S4) (?v3 S14)) (=> (= (f170 ?v0 ?v3) f1) (= (f170 ?v0 (f48 (f49 f50 ?v2) ?v3)) f1))) (= (f170 ?v0 ?v1) f1)))))
(assert (forall ((?v0 S104) (?v1 S6)) (=> (= (f171 ?v0 f32) f1) (=> (forall ((?v2 S23) (?v3 S6)) (=> (= (f171 ?v0 ?v3) f1) (= (f171 ?v0 (f51 (f52 f53 ?v2) ?v3)) f1))) (= (f171 ?v0 ?v1) f1)))))
(assert (forall ((?v0 S105) (?v1 S10)) (=> (= (f172 ?v0 f28) f1) (=> (forall ((?v2 S20) (?v3 S10)) (=> (= (f172 ?v0 ?v3) f1) (= (f172 ?v0 (f54 (f55 f56 ?v2) ?v3)) f1))) (= (f172 ?v0 ?v1) f1)))))
(assert (forall ((?v0 S6) (?v1 S23)) (= (= (f92 (f93 f94 ?v0) ?v1) f34) (or (= ?v0 f32) (not (= (f173 (f174 f175 ?v1) ?v0) f33))))))
(assert (forall ((?v0 S48) (?v1 S8)) (= (= (f39 (f100 f101 ?v0) ?v1) f12) (or (= ?v0 f71) (not (= (f176 (f177 f178 ?v1) ?v0) f33))))))
(assert (forall ((?v0 S8) (?v1 S6)) (= (= (f51 (f110 f111 ?v0) ?v1) f32) (or (= ?v0 f12) (not (= (f179 (f180 f181 ?v1) ?v0) f33))))))
(assert (forall ((?v0 S8) (?v1 S8)) (=> (forall ((?v2 S20)) (= (f62 (f131 f132 ?v0) ?v2) (f62 (f131 f132 ?v1) ?v2))) (= ?v0 ?v1))))
(assert (forall ((?v0 S12) (?v1 S12)) (=> (forall ((?v2 S20)) (= (f25 (f129 f130 ?v0) ?v2) (f25 (f129 f130 ?v1) ?v2))) (= ?v0 ?v1))))
(assert (forall ((?v0 S16) (?v1 S16)) (=> (forall ((?v2 S20)) (= (f65 (f127 f128 ?v0) ?v2) (f65 (f127 f128 ?v1) ?v2))) (= ?v0 ?v1))))
(assert (forall ((?v0 S4) (?v1 S4)) (=> (forall ((?v2 S20)) (= (f118 (f119 f120 ?v0) ?v2) (f118 (f119 f120 ?v1) ?v2))) (= ?v0 ?v1))))
(assert (forall ((?v0 S14) (?v1 S14)) (=> (forall ((?v2 S20)) (= (f57 (f116 f117 ?v0) ?v2) (f57 (f116 f117 ?v1) ?v2))) (= ?v0 ?v1))))
(assert (forall ((?v0 S6) (?v1 S6)) (=> (forall ((?v2 S20)) (= (f113 (f114 f115 ?v0) ?v2) (f113 (f114 f115 ?v1) ?v2))) (= ?v0 ?v1))))
(assert (forall ((?v0 S10) (?v1 S10)) (=> (forall ((?v2 S20)) (= (f89 (f90 f112 ?v0) ?v2) (f89 (f90 f112 ?v1) ?v2))) (= ?v0 ?v1))))
(assert (forall ((?v0 S8)) (=> (forall ((?v1 S6) (?v2 S8)) (=> (= ?v0 (f39 (f40 f41 ?v1) ?v2)) false)) false)))
(assert (forall ((?v0 S12)) (=> (forall ((?v1 S10) (?v2 S12)) (=> (= ?v0 (f42 (f43 f44 ?v1) ?v2)) false)) false)))
(assert (forall ((?v0 S16)) (=> (forall ((?v1 S14) (?v2 S16)) (=> (= ?v0 (f45 (f46 f47 ?v1) ?v2)) false)) false)))
(assert (forall ((?v0 S14)) (=> (forall ((?v1 S4) (?v2 S14)) (=> (= ?v0 (f48 (f49 f50 ?v1) ?v2)) false)) false)))
(assert (forall ((?v0 S6)) (=> (forall ((?v1 S23) (?v2 S6)) (=> (= ?v0 (f51 (f52 f53 ?v1) ?v2)) false)) false)))
(assert (forall ((?v0 S10)) (=> (forall ((?v1 S20) (?v2 S10)) (=> (= ?v0 (f54 (f55 f56 ?v1) ?v2)) false)) false)))
(assert (forall ((?v0 S4)) (=> (forall ((?v1 S3) (?v2 S4)) (=> (= ?v0 (f36 (f37 f38 ?v1) ?v2)) false)) false)))
(assert (forall ((?v0 S6) (?v1 S8) (?v2 S6)) (= (f9 (f10 f182 (f39 (f40 f41 ?v0) ?v1)) ?v2) (f39 (f40 f41 (f51 (f110 f111 ?v1) ?v2)) (f9 (f10 f182 ?v1) ?v2)))))
(assert (forall ((?v0 S10) (?v1 S12) (?v2 S10)) (= (f13 (f14 f183 (f42 (f43 f44 ?v0) ?v1)) ?v2) (f42 (f43 f44 (f54 (f108 f109 ?v1) ?v2)) (f13 (f14 f183 ?v1) ?v2)))))
(assert (forall ((?v0 S14) (?v1 S16) (?v2 S14)) (= (f17 (f18 f184 (f45 (f46 f47 ?v0) ?v1)) ?v2) (f45 (f46 f47 (f48 (f106 f107 ?v1) ?v2)) (f17 (f18 f184 ?v1) ?v2)))))
(assert (forall ((?v0 S3) (?v1 S4) (?v2 S3)) (= (f3 (f4 f185 (f36 (f37 f38 ?v0) ?v1)) ?v2) (f36 (f37 f38 (f97 (f98 f99 ?v1) ?v2)) (f3 (f4 f185 ?v1) ?v2)))))
(assert (forall ((?v0 S4) (?v1 S14) (?v2 S4)) (= (f21 (f22 f186 (f48 (f49 f50 ?v0) ?v1)) ?v2) (f48 (f49 f50 (f36 (f95 f96 ?v1) ?v2)) (f21 (f22 f186 ?v1) ?v2)))))
(assert (forall ((?v0 S20) (?v1 S10) (?v2 S20)) (= (f25 (f26 f187 (f54 (f55 f56 ?v0) ?v1)) ?v2) (f54 (f55 f56 (f89 (f90 f91 ?v1) ?v2)) (f25 (f26 f187 ?v1) ?v2)))))
(assert (forall ((?v0 S23) (?v1 S6) (?v2 S23)) (= (f29 (f30 f188 (f51 (f52 f53 ?v0) ?v1)) ?v2) (f51 (f52 f53 (f92 (f93 f94 ?v1) ?v2)) (f29 (f30 f188 ?v1) ?v2)))))
(check-sat)
(exit)
